<number of tasks>
100

<cycle time>
1000

<order strength>
0.895


<task times>
1 72
2 79
3 86
4 106
5 116
6 196
7 201
8 201
9 122
10 134
11 206
12 143
13 63
14 68
15 49
16 310
17 209
18 111
19 132
20 71
21 43
22 344
23 95
24 222
25 124
26 80
27 93
28 194
29 103
30 102
31 207
32 131
33 139
34 23
35 129
36 225
37 92
38 256
39 100
40 176
41 278
42 70
43 248
44 122
45 169
46 29
47 95
48 244
49 98
50 167
51 264
52 262
53 148
54 54
55 58
56 173
57 68
58 87
59 186
60 190
61 50
62 197
63 103
64 108
65 180
66 105
67 95
68 71
69 267
70 345
71 47
72 109
73 131
74 120
75 62
76 74
77 175
78 105
79 167
80 177
81 275
82 101
83 277
84 37
85 96
86 158
87 93
88 59
89 23
90 173
91 187
92 128
93 131
94 230
95 42
96 23
97 77
98 94
99 238
100 69

<precedence relations>
1,3
1,4
1,5
1,6
1,7
2,3
2,4
2,5
2,6
2,7
3,8
4,8
5,8
6,8
7,8
8,9
8,10
8,11
8,12
8,13
9,14
9,15
9,16
9,17
9,18
10,14
10,15
10,16
10,17
10,18
11,14
11,15
11,16
11,17
11,18
12,14
12,15
12,16
12,17
12,18
13,14
13,15
13,16
13,17
13,18
14,19
14,20
14,21
15,19
15,20
15,21
16,19
16,20
16,21
17,19
17,20
17,21
18,19
18,20
18,21
19,22
19,23
19,24
19,25
20,22
20,23
20,24
20,25
21,22
21,23
21,25
22,26
22,27
22,28
23,100
24,39
25,36
25,40
26,29
26,30
26,31
27,29
27,30
27,31
28,29
28,30
28,31
29,32
29,33
29,34
29,35
30,32
30,33
30,34
30,35
31,32
31,33
31,34
31,35
32,36
32,37
32,38
32,39
32,40
33,36
33,37
33,38
33,39
33,40
34,36
34,37
34,38
34,39
34,40
35,36
35,37
35,38
35,40
36,41
36,42
36,43
37,41
37,45
38,42
38,43
39,41
39,42
39,43
40,41
40,42
40,43
41,46
41,47
42,44
42,45
42,46
42,47
43,44
43,45
43,46
43,47
44,48
44,49
45,48
45,49
46,48
46,49
47,48
47,49
48,50
48,51
48,52
49,50
49,51
49,52
50,53
50,54
50,55
50,56
51,53
51,54
51,55
51,56
52,53
52,54
53,66
54,57
54,58
54,59
54,60
55,57
55,59
56,62
56,68
56,78
57,63
58,64
59,61
60,62
60,63
60,68
61,65
61,67
61,68
62,71
62,81
63,65
63,67
64,65
64,66
64,68
65,69
65,71
66,70
66,75
67,69
67,70
67,71
68,80
68,81
69,72
69,76
70,72
70,74
71,73
71,75
72,77
72,78
73,85
74,83
75,76
76,79
76,80
77,81
77,83
78,81
78,93
79,83
79,85
80,84
80,86
81,82
81,84
82,87
83,95
84,94
84,95
85,86
85,88
86,89
87,91
87,92
88,90
89,93
89,94
90,95
91,94
93,96
94,96
94,98
95,97
95,99
96,100
98,100
99,100

<end>
